NAME F-JSSP-SDST
ROWS
 N  OBJ
 E  c0      
 E  c1      
 E  c2      
 E  c3      
 E  c4      
 E  c5      
 L  c6      
 L  c7      
 L  c8      
 L  c9      
 L  c10     
 L  c11     
 L  c12     
 L  c13     
 L  c14     
 L  c15     
 L  c16     
 L  c17     
 G  c18     
 G  c19     
 G  c20     
 G  c21     
 G  c22     
 G  c23     
 G  c24     
 G  c25     
 G  c26     
 G  c27     
 G  c28     
 G  c29     
 G  c30     
 G  c31     
 G  c32     
 G  c33     
 G  c34     
 G  c35     
 G  c36     
 G  c37     
 G  c38     
 G  c39     
 G  c40     
 G  c41     
 G  c42     
 G  c43     
 G  c44     
 G  c45     
 G  c46     
 G  c47     
 G  c48     
 G  c49     
 G  c50     
 G  c51     
 G  c52     
 G  c53     
 G  c54     
 G  c55     
 G  c56     
 G  c57     
 G  c58     
 G  c59     
 G  c60     
 G  c61     
 G  c62     
 G  c63     
 G  c64     
 G  c65     
 G  c66     
 G  c67     
 G  c68     
 G  c69     
 G  c70     
 G  c71     
 G  c72     
 G  c73     
 G  c74     
 G  c75     
 G  c76     
 G  c77     
 G  c78     
 G  c79     
 G  c80     
 G  c81     
 G  c82     
 G  c83     
 G  c84     
 G  c85     
 G  c86     
 G  c87     
 G  c88     
 G  c89     
 G  c90     
 G  c91     
 G  c92     
 G  c93     
 G  c94     
 G  c95     
 G  c96     
 G  c97     
 G  c98     
 G  c99     
 L  c100    
 G  c101    
 L  c102    
 G  c103    
 L  c104    
 G  c105    
 L  c106    
 G  c107    
 L  c108    
 G  c109    
 L  c110    
 G  c111    
 L  c112    
 G  c113    
 L  c114    
 G  c115    
 L  c116    
 G  c117    
 L  c118    
 G  c119    
 L  c120    
 G  c121    
 L  c122    
 G  OF_constraint
COLUMNS
    MARKER    'MARKER'                 'INTORG'
    B0(15)    c0        1
    B0(15)    c6        -71000
    B0(15)    c18       -43
    B0(15)    c19       -71043
    B0(15)    c20       -43
    B0(15)    c27       -71000
    B0(15)    c28       -71000
    B0(15)    c31       -71000
    B0(15)    c32       -71000
    B0(15)    c35       -71000
    B0(15)    c36       -71000
    B0(15)    c39       -71000
    B0(15)    c40       -71000
    B0(15)    c99       43
    B0(15)    c100      43
    B1(15)    c0        1
    B1(15)    c7        -71000
    B1(15)    c18       -36
    B1(15)    c19       -36
    B1(15)    c20       -71036
    B1(15)    c29       -71000
    B1(15)    c30       -71000
    B1(15)    c33       -71000
    B1(15)    c34       -71000
    B1(15)    c37       -71000
    B1(15)    c38       -71000
    B1(15)    c41       -71000
    B1(15)    c42       -71000
    B1(15)    c101      36
    B1(15)    c102      36
    B2(13)    c1        1
    B2(13)    c8        -71000
    B2(13)    c19       -71000
    B2(13)    c43       -71000
    B2(13)    c44       -71000
    B2(13)    c47       -71000
    B2(13)    c48       -71000
    B2(13)    c51       -71000
    B2(13)    c52       -71000
    B2(13)    c55       -71000
    B2(13)    c56       -71000
    B2(13)    c103      64
    B2(13)    c104      64
    B3(13)    c1        1
    B3(13)    c9        -71000
    B3(13)    c20       -71000
    B3(13)    c45       -71000
    B3(13)    c46       -71000
    B3(13)    c49       -71000
    B3(13)    c50       -71000
    B3(13)    c53       -71000
    B3(13)    c54       -71000
    B3(13)    c57       -71000
    B3(13)    c58       -71000
    B3(13)    c105      71
    B3(13)    c106      71
    B4(16)    c2        1
    B4(16)    c10       -71000
    B4(16)    c21       -34
    B4(16)    c22       -71034
    B4(16)    c23       -34
    B4(16)    c27       -71000
    B4(16)    c28       -71000
    B4(16)    c43       -71000
    B4(16)    c44       -71000
    B4(16)    c59       -71000
    B4(16)    c60       -71000
    B4(16)    c63       -71000
    B4(16)    c64       -71000
    B4(16)    c83       -10
    B4(16)    c107      34
    B4(16)    c108      34
    B5(16)    c2        1
    B5(16)    c11       -71000
    B5(16)    c21       -53
    B5(16)    c22       -53
    B5(16)    c23       -71053
    B5(16)    c29       -71000
    B5(16)    c30       -71000
    B5(16)    c45       -71000
    B5(16)    c46       -71000
    B5(16)    c61       -71000
    B5(16)    c62       -71000
    B5(16)    c65       -71000
    B5(16)    c66       -71000
    B5(16)    c85       -10
    B5(16)    c109      53
    B5(16)    c110      53
    B6(14)    c3        1
    B6(14)    c12       -71000
    B6(14)    c22       -71000
    B6(14)    c31       -71000
    B6(14)    c32       -71000
    B6(14)    c47       -71000
    B6(14)    c48       -71000
    B6(14)    c67       -71000
    B6(14)    c68       -71000
    B6(14)    c71       -71000
    B6(14)    c72       -71000
    B6(14)    c87       -10
    B6(14)    c111      36
    B6(14)    c112      36
    B7(14)    c3        1
    B7(14)    c13       -71000
    B7(14)    c23       -71000
    B7(14)    c33       -71000
    B7(14)    c34       -71000
    B7(14)    c49       -71000
    B7(14)    c50       -71000
    B7(14)    c69       -71000
    B7(14)    c70       -71000
    B7(14)    c73       -71000
    B7(14)    c74       -71000
    B7(14)    c89       -10
    B7(14)    c113      21
    B7(14)    c114      21
    B8(15)    c4        1
    B8(15)    c14       -71000
    B8(15)    c24       -21
    B8(15)    c25       -71021
    B8(15)    c26       -21
    B8(15)    c35       -71000
    B8(15)    c36       -71000
    B8(15)    c51       -71000
    B8(15)    c52       -71000
    B8(15)    c59       -71000
    B8(15)    c60       -71000
    B8(15)    c67       -71000
    B8(15)    c68       -71000
    B8(15)    c115      21
    B8(15)    c116      21
    B9(15)    c4        1
    B9(15)    c15       -71000
    B9(15)    c24       -35
    B9(15)    c25       -35
    B9(15)    c26       -71035
    B9(15)    c37       -71000
    B9(15)    c38       -71000
    B9(15)    c53       -71000
    B9(15)    c54       -71000
    B9(15)    c61       -71000
    B9(15)    c62       -71000
    B9(15)    c69       -71000
    B9(15)    c70       -71000
    B9(15)    c117      35
    B9(15)    c118      35
    B10(13)   c5        1
    B10(13)   c16       -71000
    B10(13)   c25       -71000
    B10(13)   c39       -71000
    B10(13)   c40       -71000
    B10(13)   c55       -71000
    B10(13)   c56       -71000
    B10(13)   c63       -71000
    B10(13)   c64       -71000
    B10(13)   c71       -71000
    B10(13)   c72       -71000
    B10(13)   c119      43
    B10(13)   c120      43
    B11(13)   c5        1
    B11(13)   c17       -71000
    B11(13)   c26       -71000
    B11(13)   c41       -71000
    B11(13)   c42       -71000
    B11(13)   c57       -71000
    B11(13)   c58       -71000
    B11(13)   c65       -71000
    B11(13)   c66       -71000
    B11(13)   c73       -71000
    B11(13)   c74       -71000
    B11(13)   c121      37
    B11(13)   c122      37
    B12(0)    OBJ       0
    B13(0)    OBJ       0
    B14(4)    c27       -71000
    B14(4)    c28       71000
    B14(4)    c29       -71000
    B14(4)    c30       71000
    B15(4)    c31       -71000
    B15(4)    c32       71000
    B15(4)    c33       -71000
    B15(4)    c34       71000
    B16(4)    c35       -71000
    B16(4)    c36       71000
    B16(4)    c37       -71000
    B16(4)    c38       71000
    B17(4)    c39       -71000
    B17(4)    c40       71000
    B17(4)    c41       -71000
    B17(4)    c42       71000
    B18(0)    OBJ       0
    B19(0)    OBJ       0
    B20(4)    c43       -71000
    B20(4)    c44       71000
    B20(4)    c45       -71000
    B20(4)    c46       71000
    B21(4)    c47       -71000
    B21(4)    c48       71000
    B21(4)    c49       -71000
    B21(4)    c50       71000
    B22(4)    c51       -71000
    B22(4)    c52       71000
    B22(4)    c53       -71000
    B22(4)    c54       71000
    B23(4)    c55       -71000
    B23(4)    c56       71000
    B23(4)    c57       -71000
    B23(4)    c58       71000
    B24(0)    OBJ       0
    B25(0)    OBJ       0
    B26(0)    OBJ       0
    B27(0)    OBJ       0
    B28(4)    c59       -71000
    B28(4)    c60       71000
    B28(4)    c61       -71000
    B28(4)    c62       71000
    B29(4)    c63       -71000
    B29(4)    c64       71000
    B29(4)    c65       -71000
    B29(4)    c66       71000
    B30(0)    OBJ       0
    B31(0)    OBJ       0
    B32(0)    OBJ       0
    B33(0)    OBJ       0
    B34(4)    c67       -71000
    B34(4)    c68       71000
    B34(4)    c69       -71000
    B34(4)    c70       71000
    B35(4)    c71       -71000
    B35(4)    c72       71000
    B35(4)    c73       -71000
    B35(4)    c74       71000
    B36(0)    OBJ       0
    B37(0)    OBJ       0
    B38(0)    OBJ       0
    B39(0)    OBJ       0
    B40(0)    OBJ       0
    B41(0)    OBJ       0
    B42(0)    OBJ       0
    B43(0)    OBJ       0
    B44(0)    OBJ       0
    B45(0)    OBJ       0
    B46(0)    OBJ       0
    B47(0)    OBJ       0
    I48(16)   c6        1
    I48(16)   c18       -1
    I48(16)   c19       -1
    I48(16)   c20       -1
    I48(16)   c27       1
    I48(16)   c28       -1
    I48(16)   c31       1
    I48(16)   c32       -1
    I48(16)   c35       1
    I48(16)   c36       -1
    I48(16)   c39       1
    I48(16)   c40       -1
    I48(16)   c75       1
    I48(16)   c76       1
    I48(16)   c99       1
    I48(16)   c100      1
    I49(16)   c7        1
    I49(16)   c18       -1
    I49(16)   c19       -1
    I49(16)   c20       -1
    I49(16)   c29       1
    I49(16)   c30       -1
    I49(16)   c33       1
    I49(16)   c34       -1
    I49(16)   c37       1
    I49(16)   c38       -1
    I49(16)   c41       1
    I49(16)   c42       -1
    I49(16)   c77       1
    I49(16)   c78       1
    I49(16)   c101      1
    I49(16)   c102      1
    I50(17)   c8        1
    I50(17)   c18       1
    I50(17)   c19       1
    I50(17)   c20       1
    I50(17)   c43       1
    I50(17)   c44       -1
    I50(17)   c47       1
    I50(17)   c48       -1
    I50(17)   c51       1
    I50(17)   c52       -1
    I50(17)   c55       1
    I50(17)   c56       -1
    I50(17)   c79       1
    I50(17)   c80       1
    I50(17)   c103      1
    I50(17)   c104      1
    I51(17)   c9        1
    I51(17)   c18       1
    I51(17)   c19       1
    I51(17)   c20       1
    I51(17)   c45       1
    I51(17)   c46       -1
    I51(17)   c49       1
    I51(17)   c50       -1
    I51(17)   c53       1
    I51(17)   c54       -1
    I51(17)   c57       1
    I51(17)   c58       -1
    I51(17)   c81       1
    I51(17)   c82       1
    I51(17)   c105      1
    I51(17)   c106      1
    I52(16)   c10       1
    I52(16)   c21       -1
    I52(16)   c22       -1
    I52(16)   c23       -1
    I52(16)   c27       -1
    I52(16)   c28       1
    I52(16)   c43       -1
    I52(16)   c44       1
    I52(16)   c59       1
    I52(16)   c60       -1
    I52(16)   c63       1
    I52(16)   c64       -1
    I52(16)   c83       1
    I52(16)   c84       1
    I52(16)   c107      1
    I52(16)   c108      1
    I53(16)   c11       1
    I53(16)   c21       -1
    I53(16)   c22       -1
    I53(16)   c23       -1
    I53(16)   c29       -1
    I53(16)   c30       1
    I53(16)   c45       -1
    I53(16)   c46       1
    I53(16)   c61       1
    I53(16)   c62       -1
    I53(16)   c65       1
    I53(16)   c66       -1
    I53(16)   c85       1
    I53(16)   c86       1
    I53(16)   c109      1
    I53(16)   c110      1
    I54(17)   c12       1
    I54(17)   c21       1
    I54(17)   c22       1
    I54(17)   c23       1
    I54(17)   c31       -1
    I54(17)   c32       1
    I54(17)   c47       -1
    I54(17)   c48       1
    I54(17)   c67       1
    I54(17)   c68       -1
    I54(17)   c71       1
    I54(17)   c72       -1
    I54(17)   c87       1
    I54(17)   c88       1
    I54(17)   c111      1
    I54(17)   c112      1
    I55(17)   c13       1
    I55(17)   c21       1
    I55(17)   c22       1
    I55(17)   c23       1
    I55(17)   c33       -1
    I55(17)   c34       1
    I55(17)   c49       -1
    I55(17)   c50       1
    I55(17)   c69       1
    I55(17)   c70       -1
    I55(17)   c73       1
    I55(17)   c74       -1
    I55(17)   c89       1
    I55(17)   c90       1
    I55(17)   c113      1
    I55(17)   c114      1
    I56(16)   c14       1
    I56(16)   c24       -1
    I56(16)   c25       -1
    I56(16)   c26       -1
    I56(16)   c35       -1
    I56(16)   c36       1
    I56(16)   c51       -1
    I56(16)   c52       1
    I56(16)   c59       -1
    I56(16)   c60       1
    I56(16)   c67       -1
    I56(16)   c68       1
    I56(16)   c91       1
    I56(16)   c92       1
    I56(16)   c115      1
    I56(16)   c116      1
    I57(16)   c15       1
    I57(16)   c24       -1
    I57(16)   c25       -1
    I57(16)   c26       -1
    I57(16)   c37       -1
    I57(16)   c38       1
    I57(16)   c53       -1
    I57(16)   c54       1
    I57(16)   c61       -1
    I57(16)   c62       1
    I57(16)   c69       -1
    I57(16)   c70       1
    I57(16)   c93       1
    I57(16)   c94       1
    I57(16)   c117      1
    I57(16)   c118      1
    I58(17)   c16       1
    I58(17)   c24       1
    I58(17)   c25       1
    I58(17)   c26       1
    I58(17)   c39       -1
    I58(17)   c40       1
    I58(17)   c55       -1
    I58(17)   c56       1
    I58(17)   c63       -1
    I58(17)   c64       1
    I58(17)   c71       -1
    I58(17)   c72       1
    I58(17)   c95       1
    I58(17)   c96       1
    I58(17)   c119      1
    I58(17)   c120      1
    I59(17)   c17       1
    I59(17)   c24       1
    I59(17)   c25       1
    I59(17)   c26       1
    I59(17)   c41       -1
    I59(17)   c42       1
    I59(17)   c57       -1
    I59(17)   c58       1
    I59(17)   c65       -1
    I59(17)   c66       1
    I59(17)   c73       -1
    I59(17)   c74       1
    I59(17)   c97       1
    I59(17)   c98       1
    I59(17)   c121      1
    I59(17)   c122      1
    I60(1)    OBJ       1
    I60(1)    OF_constraint  1
    B61(2)    c99       -71000
    B61(2)    c100      -71000
    B62(2)    c101      -71000
    B62(2)    c102      -71000
    B63(4)    c103      -71000
    B63(4)    c104      -71000
    B63(4)    OF_constraint  -30
    B64(4)    c105      -71000
    B64(4)    c106      -71000
    B64(4)    OF_constraint  -37
    B65(2)    c107      -71000
    B65(2)    c108      -71000
    B66(2)    c109      -71000
    B66(2)    c110      -71000
    B67(4)    c111      -71000
    B67(4)    c112      -71000
    B67(4)    OF_constraint  -5
    B68(4)    c113      -71000
    B68(4)    c114      -71000
    B68(4)    OF_constraint  10
    B69(2)    c115      -71000
    B69(2)    c116      -71000
    B70(2)    c117      -71000
    B70(2)    c118      -71000
    B71(4)    c119      -71000
    B71(4)    c120      -71000
    B71(4)    OF_constraint  -26
    B72(4)    c121      -71000
    B72(4)    c122      -71000
    B72(4)    OF_constraint  -20
    MARKER    'MARKER'                 'INTEND'
RHS
    RHS1      c0        1
    RHS1      c1        1
    RHS1      c2        1
    RHS1      c3        1
    RHS1      c4        1
    RHS1      c5        1
    RHS1      c19       -141997
    RHS1      c20       -141995
    RHS1      c22       -141995
    RHS1      c23       -141997
    RHS1      c25       -141996
    RHS1      c26       -141997
    RHS1      c27       -212963
    RHS1      c28       -141953
    RHS1      c29       -212943
    RHS1      c30       -141961
    RHS1      c31       -212960
    RHS1      c32       -141953
    RHS1      c33       -212976
    RHS1      c34       -141961
    RHS1      c35       -212975
    RHS1      c36       -141954
    RHS1      c37       -212961
    RHS1      c38       -141961
    RHS1      c39       -212954
    RHS1      c40       -141953
    RHS1      c41       -212959
    RHS1      c42       -141961
    RHS1      c43       -212962
    RHS1      c44       -141932
    RHS1      c45       -212944
    RHS1      c46       -141926
    RHS1      c47       -212961
    RHS1      c48       -141933
    RHS1      c49       -212976
    RHS1      c50       -141924
    RHS1      c51       -212976
    RHS1      c52       -141933
    RHS1      c53       -212960
    RHS1      c54       -141925
    RHS1      c55       -212952
    RHS1      c56       -141932
    RHS1      c57       -212959
    RHS1      c58       -141926
    RHS1      c59       -212976
    RHS1      c60       -141962
    RHS1      c61       -212961
    RHS1      c62       -141944
    RHS1      c63       -212954
    RHS1      c64       -141963
    RHS1      c65       -212959
    RHS1      c66       -141944
    RHS1      c67       -212975
    RHS1      c68       -141961
    RHS1      c69       -212960
    RHS1      c70       -141975
    RHS1      c71       -212953
    RHS1      c72       -141961
    RHS1      c73       -212959
    RHS1      c74       -141976
    RHS1      c99       -70966
    RHS1      c100      34
    RHS1      c101      -70966
    RHS1      c102      34
    RHS1      c103      -70966
    RHS1      c104      34
    RHS1      c105      -70966
    RHS1      c106      34
    RHS1      c107      -70969
    RHS1      c108      31
    RHS1      c109      -70969
    RHS1      c110      31
    RHS1      c111      -70969
    RHS1      c112      31
    RHS1      c113      -70969
    RHS1      c114      31
    RHS1      c115      -70983
    RHS1      c116      17
    RHS1      c117      -70983
    RHS1      c118      17
    RHS1      c119      -70983
    RHS1      c120      17
    RHS1      c121      -70983
    RHS1      c122      17
BOUNDS
 BV BND1      B0(15)  
 BV BND1      B1(15)  
 BV BND1      B2(13)  
 BV BND1      B3(13)  
 BV BND1      B4(16)  
 BV BND1      B5(16)  
 BV BND1      B6(14)  
 BV BND1      B7(14)  
 BV BND1      B8(15)  
 BV BND1      B9(15)  
 BV BND1      B10(13) 
 BV BND1      B11(13) 
 BV BND1      B12(0)  
 BV BND1      B13(0)  
 BV BND1      B14(4)  
 BV BND1      B15(4)  
 BV BND1      B16(4)  
 BV BND1      B17(4)  
 BV BND1      B18(0)  
 BV BND1      B19(0)  
 BV BND1      B20(4)  
 BV BND1      B21(4)  
 BV BND1      B22(4)  
 BV BND1      B23(4)  
 BV BND1      B24(0)  
 BV BND1      B25(0)  
 BV BND1      B26(0)  
 BV BND1      B27(0)  
 BV BND1      B28(4)  
 BV BND1      B29(4)  
 BV BND1      B30(0)  
 BV BND1      B31(0)  
 BV BND1      B32(0)  
 BV BND1      B33(0)  
 BV BND1      B34(4)  
 BV BND1      B35(4)  
 BV BND1      B36(0)  
 BV BND1      B37(0)  
 BV BND1      B38(0)  
 BV BND1      B39(0)  
 BV BND1      B40(0)  
 BV BND1      B41(0)  
 BV BND1      B42(0)  
 BV BND1      B43(0)  
 BV BND1      B44(0)  
 BV BND1      B45(0)  
 BV BND1      B46(0)  
 BV BND1      B47(0)  
 LI BND1      I48(16)   0
 LI BND1      I49(16)   0
 LI BND1      I50(17)   0
 LI BND1      I51(17)   0
 LI BND1      I52(16)   0
 LI BND1      I53(16)   0
 LI BND1      I54(17)   0
 LI BND1      I55(17)   0
 LI BND1      I56(16)   0
 LI BND1      I57(16)   0
 LI BND1      I58(17)   0
 LI BND1      I59(17)   0
 LI BND1      I60(1)    0
 BV BND1      B61(2)  
 BV BND1      B62(2)  
 BV BND1      B63(4)  
 BV BND1      B64(4)  
 BV BND1      B65(2)  
 BV BND1      B66(2)  
 BV BND1      B67(4)  
 BV BND1      B68(4)  
 BV BND1      B69(2)  
 BV BND1      B70(2)  
 BV BND1      B71(4)  
 BV BND1      B72(4)  
QCMATRIX   OF_constraint
    I50(17)   B63(4)    -0.5
    B63(4)    I50(17)   -0.5
    I51(17)   B64(4)    -0.5
    B64(4)    I51(17)   -0.5
    I54(17)   B67(4)    -0.5
    B67(4)    I54(17)   -0.5
    I55(17)   B68(4)    -0.5
    B68(4)    I55(17)   -0.5
    I58(17)   B71(4)    -0.5
    B71(4)    I58(17)   -0.5
    I59(17)   B72(4)    -0.5
    B72(4)    I59(17)   -0.5
ENDATA
